\* coffee *\
Maximize
OBJ: 0.5525 x + 0.85 y + 0.735 z
Subject To
_C1: x + y + z <= 100000
_C2: 0.2 x + 0.35 y + 0.1 z <= 40000
_C3: 0.4 x + 0.15 y + 0.35 z <= 25000
_C4: 0.15 x + 0.2 y + 0.4 z <= 20000
_C5: 0.25 x + 0.3 y + 0.15 z <= 45000
Bounds
10000 <= x <= 100000
25000 <= y <= 100000
30000 <= z <= 100000
Generals
x
y
z
End
